NAME : cluster_netgen
COMMENT : cl=5
TYPE : TSP
DIMENSION : 50
EDGE_WEIGHT_TYPE : EUC_2D
NODE_COORD_SECTION
1 242803 757734
2 231515 835469
3 283880 728833
4 268763 728354
5 300832 816812
6 219239 755945
7 289114 780723
8 249072 811603
9 262707 756875
10 393380 795929
11 412265 1100
12 333042 53093
13 312837 70313
14 349457 76655
15 442851 2415
16 426768 36978
17 399234 29238
18 389020 1490
19 344697 7320
20 458841 82271
21 718647 512528
22 654913 456593
23 785824 510080
24 713377 509182
25 547809 410498
26 726681 491812
27 616076 542906
28 690129 443117
29 644492 413022
30 698365 431724
31 933099 791709
32 852496 789604
33 807615 848257
34 821943 833624
35 844962 771589
36 879566 754779
37 925398 894198
38 828979 791550
39 864199 832075
40 864977 840012
41 231928 422740
42 228595 247171
43 165174 264595
44 226503 301464
45 179424 335315
46 59523 312602
47 214267 309610
48 120869 298003
49 254936 253859
50 114983 338913

EOF
